Comps = {frontend0, frontend1, backend0, backend1, backend2, database0, database1};
mustComps = {frontend0, frontend1};
Flavs = {tiny, medium, large};
Nodes = {n1, n2, n3, n4};
CRes = {CPU, RAM, storage, bwIn, bwOut};
NRes = {ssl, fwall, encr, avail, latency};
Flav = [{medium, large}, {medium, large}, {tiny, medium, large}, {tiny, medium, large}, {tiny, medium, large}, {large}, {large}];
Uses = [{backend2}, {backend0}, {backend2}, {backend0}, {}, {}, {}, {database0}, {database1}, {database1}, {database0}, {database1}, {database1}, {}, {}];
MAX_BOUND = 1000000;

worstBounds = [0, 0, 0, 0, 0, 0, 0, 0, 0, MAX_BOUND];
bestBounds = [MAX_BOUND - i | i in worstBounds];

comReq = array2d(CompFlavs, Res, [
  8, 444, 405, 342, 217, 1, 1, 1, 96, MAX_BOUND,
  2, 478, 426, 259, 460, 0, 0, 1, 97, MAX_BOUND,
  8, 377, 244, 628, 661, 1, 1, 0, 95, MAX_BOUND,
  2, 427, 363, 516, 856, 0, 1, 1, 96, MAX_BOUND,
  2, 207, 459, 246, 615, 1, 1, 0, 95, MAX_BOUND,
  2, 236, 247, 805, 315, 1, 0, 1, 97, MAX_BOUND,
  4, 308, 388, 453, 998, 1, 1, 1, 95, MAX_BOUND,
  2, 362, 363, 819, 785, 0, 0, 1, 96, MAX_BOUND,
  2, 319, 495, 788, 798, 1, 1, 1, 96, MAX_BOUND,
  2, 340, 238, 239, 323, 1, 1, 1, 95, MAX_BOUND,
  2, 247, 382, 428, 891, 1, 1, 1, 95, MAX_BOUND,
  8, 261, 379, 518, 899, 1, 0, 1, 97, MAX_BOUND,
  2, 224, 300, 692, 230, 1, 1, 0, 95, MAX_BOUND,
  2, 485, 327, 469, 788, 0, 0, 1, 96, MAX_BOUND,
  2, 459, 482, 792, 384, 0, 1, 1, 95, MAX_BOUND,
]);

nodeCap = array2d(Nodes0, Res, [bestBounds[r] | r in Res] ++ [
  16, 98883, 777598, 14070, 11312, 1, 1, 1, 99, 0,
  16, 57066, 68647, 17293, 17629, 1, 1, 1, 98, 0,
  32, 124808, 288494, 11560, 13054, 1, 0, 1, 99, 0,
  16, 126188, 512920, 21388, 24704, 1, 1, 1, 99, 0,
]);

cost = array2d(Nodes0, Res, [
  0, 0, 0, 0, 0, 0, 0, 0, 0, 0, % no node
  12, 10, 15, 0, 0, 0, 0, 0, 0, 0,
  14, 6, 19, 0, 0, 0, 0, 0, 0, 0,
  17, 5, 21, 0, 0, 0, 0, 0, 0, 0,
  13, 5, 18, 0, 0, 0, 0, 0, 0, 0,
]);

cons = array2d(Nodes0, Res, [
  0, 0, 0, 0, 0, 0, 0, 0, 0, 0, % no node
  29, 31, 29, 0, 0, 0, 0, 0, 0, 0,
  32, 8, 29, 0, 0, 0, 0, 0, 0, 0,
  23, 49, 4, 0, 0, 0, 0, 0, 0, 0,
  39, 44, 14, 0, 0, 0, 0, 0, 0, 0,
]);

costWeight = 0;
consWeight = 1;

costBudget = 48946;
consBudget = 39038;

depReq = array3d(Comps, Comps, Res, [
  if c1 = frontend0 /\ c2 = backend2 /\ r = N(avail) then
    95
  elseif c1 = frontend1 /\ c2 = backend2 /\ r = N(avail) then
    95
  elseif c1 = frontend0 /\ c2 = backend1 /\ r = N(avail) then
    95
  elseif c1 = frontend1 /\ c2 = backend1 /\ r = N(avail) then
    97
  elseif c1 = frontend1 /\ c2 = backend0 /\ r = N(avail) then
    97
  else
    worstBounds[r]
  endif | c1 in Comps, c2 in Comps, r in Res]);

linkCap = array3d(Nodes0, Nodes0, Res, [
  if ni = 0 \/ nj = 0 then
    bestBounds[r]
  elseif ni = nj /\ r = N(avail) then
    nodeCap[ni,r]
  elseif {ni, nj} = {n1, n4} /\ r = N(avail) then
    98
  elseif {ni, nj} = {n1, n3} /\ r = N(avail) then
    99
  elseif {ni, nj} = {n1, n2} /\ r = N(avail) then
    99
  elseif {ni, nj} = {n3, n4} /\ r = N(avail) then
    98
  elseif {ni, nj} = {n2, n4} /\ r = N(avail) then
    98
  elseif {ni, nj} = {n2, n3} /\ r = N(avail) then
    99
  else
    worstBounds[r]
  endif | ni in Nodes0, nj in Nodes0, r in Res]);

imp = array2d(Comps, Flavs, [
  1, 2, 8,
  3, 9, 10,
  6, 8, 10,
  3, 4, 6,
  5, 7, 10,
  4, 7, 10,
  1, 4, 7,
]);

